NAME: Tnm103
COMMENT: Recalculated optimal tour for Tnm103, using concorde got a tour of length 1412229.0
TYPE: TOUR
DIMENSION: 103
TOUR_SECTION:
1
80
4
7
10
13
16
19
22
25
28
31
34
37
40
43
46
49
52
55
58
61
64
87
84
67
70
73
76
2
81
5
8
11
14
17
20
23
26
29
32
35
90
93
96
99
102
103
101
98
100
97
94
91
88
38
41
44
47
50
53
56
59
62
65
85
82
68
71
79
74
77
3
6
9
12
15
18
21
24
27
30
33
36
39
42
45
48
51
54
57
60
63
95
92
89
86
83
66
69
72
75
78
-1
EOF
